(set-info :Origin "This instance was generated by: BanditFuzz-- an RL fuzzer for SMT solvers" )
(set-info :Author "Joe Scott, Fed Mora, Vijay Ganesh" )
(set-info :Contact "Joe Scott, joseph.scott@uwaterloo.ca")
(set-logic QF_BV)
(declare-const bool_0 Bool)
(declare-const bool_1 Bool)
(declare-const bool_2 Bool)
(declare-const bool_3 Bool)
(declare-const bool_4 Bool)
(declare-const bv_0 (_ BitVec 32))
(declare-const bv_1 (_ BitVec 32))
(declare-const bv_2 (_ BitVec 32))
(declare-const bv_3 (_ BitVec 32))
(declare-const bv_4 (_ BitVec 32))
(assert (and (bvult (bvsmod bv_3 #xdf52a1ae ) (bvudiv #x5c33f858  bv_4)) (bvule (bvashr #xdb90d2dc  bv_0) (bvor #x6df350bd  bv_3))))
(assert (and (bvuge (bvsmod #x51b7fc9f  bv_4) (bvashr #x77774cb0  #xfdfb1490 )) (=> (or bool_4 bool_3) (or bool_4 true))))
(assert (or (not (xor true bool_0)) (and (bvult #x5db6de4f  #x58b1f2a2 ) (bvult #xa072ad6e  #xdba7cf3e ))))
(assert (bvule (bvsdiv (bvlshr #xbac571bd  bv_1) (bvshl bv_4 #x8686c67a )) (bvnor (bvor #xa84c0671  #x96a44354 ) (bvsdiv bv_2 bv_1))))
(assert (bvsle (bvadd (bvmul #x2cc7c7ba  #x4e35bb6e ) (bvsmod #x97903dae  #xf4d17546 )) (bvsrem (bvsdiv bv_0 #x19d3d932 ) (bvsdiv #x9e5cef60  #xc99d83de ))))
(check-sat)
(exit)
